NAME 
ROWS
 N  OBJ
 L  R0      
 L  R1      
 L  R2      
 E  R3      
 E  R4      
 E  R5      
 E  R6      
 E  R7      
 E  R8      
 E  R9      
 E  R10     
 E  R11     
 E  R12     
 E  R13     
 E  R14     
 E  R15     
 E  R16     
 E  R17     
COLUMNS
    MARKER    'MARKER'                 'INTORG'
    I0(9)     OBJ       -65
    I0(9)     R0        -9
    I0(9)     R1        44
    I0(9)     R2        -144
    I0(9)     R3        9
    I0(9)     R4        5
    I0(9)     R6        12
    I0(9)     R7        10
    I0(9)     R8        11
    I0(9)     R17       1
    I1(7)     OBJ       -73
    I1(7)     R0        122
    I1(7)     R1        198
    I1(7)     R2        44
    I1(7)     R4        18
    I1(7)     R6        15
    I1(7)     R8        16
    I1(7)     R17       1
    I2(10)    OBJ       171
    I2(10)    R0        33
    I2(10)    R1        -70
    I2(10)    R2        199
    I2(10)    R3        3
    I2(10)    R4        18
    I2(10)    R5        17
    I2(10)    R6        15
    I2(10)    R7        10
    I2(10)    R8        9
    I2(10)    R17       1
    I3(9)     OBJ       -44
    I3(9)     R0        -190
    I3(9)     R1        30
    I3(9)     R2        147
    I3(9)     R4        9
    I3(9)     R5        2
    I3(9)     R6        8
    I3(9)     R7        18
    I3(9)     R8        4
    I3(9)     R17       1
    I4(8)     OBJ       -153
    I4(8)     R0        91
    I4(8)     R1        155
    I4(8)     R2        -104
    I4(8)     R3        7
    I4(8)     R4        13
    I4(8)     R6        -1
    I4(8)     R7        14
    I4(8)     R17       1
    I5(10)    OBJ       69
    I5(10)    R0        93
    I5(10)    R1        110
    I5(10)    R2        -186
    I5(10)    R3        3
    I5(10)    R4        6
    I5(10)    R5        10
    I5(10)    R6        15
    I5(10)    R7        4
    I5(10)    R8        16
    I5(10)    R17       1
    MARKER    'MARKER'                 'INTEND'
    C6(12)    OBJ       -9
    C6(12)    R0        6
    C6(12)    R1        1
    C6(12)    R2        -10
    C6(12)    R3        4
    C6(12)    R6        3
    C6(12)    R8        4
    C6(12)    R9        1
    C6(12)    R10       4
    C6(12)    R11       11
    C6(12)    R12       14
    C6(12)    R15       13
    C6(12)    R16       13
    C7(13)    OBJ       4
    C7(13)    R0        -9
    C7(13)    R1        -8
    C7(13)    R2        4
    C7(13)    R3        1
    C7(13)    R7        2
    C7(13)    R8        9
    C7(13)    R10       4
    C7(13)    R11       10
    C7(13)    R12       11
    C7(13)    R13       17
    C7(13)    R14       18
    C7(13)    R15       13
    C7(13)    R16       10
    C8(15)    OBJ       -7
    C8(15)    R0        5
    C8(15)    R1        -9
    C8(15)    R2        5
    C8(15)    R3        15
    C8(15)    R4        7
    C8(15)    R5        9
    C8(15)    R6        9
    C8(15)    R7        19
    C8(15)    R9        11
    C8(15)    R10       15
    C8(15)    R11       10
    C8(15)    R12       17
    C8(15)    R13       10
    C8(15)    R15       1
    C8(15)    R16       4
    C9(15)    OBJ       -10
    C9(15)    R0        4
    C9(15)    R1        3
    C9(15)    R2        -2
    C9(15)    R3        -1
    C9(15)    R4        8
    C9(15)    R5        6
    C9(15)    R6        16
    C9(15)    R7        13
    C9(15)    R8        4
    C9(15)    R10       2
    C9(15)    R11       10
    C9(15)    R12       14
    C9(15)    R14       13
    C9(15)    R15       7
    C9(15)    R16       -1
    C10(16)   OBJ       -2
    C10(16)   R0        -8
    C10(16)   R1        -6
    C10(16)   R2        3
    C10(16)   R3        -1
    C10(16)   R5        17
    C10(16)   R6        9
    C10(16)   R7        16
    C10(16)   R8        12
    C10(16)   R9        9
    C10(16)   R10       3
    C10(16)   R11       15
    C10(16)   R12       -1
    C10(16)   R13       1
    C10(16)   R14       8
    C10(16)   R15       8
    C10(16)   R16       13
    C11(16)   OBJ       -6
    C11(16)   R0        5
    C11(16)   R1        -6
    C11(16)   R2        -1
    C11(16)   R3        -1
    C11(16)   R5        3
    C11(16)   R6        13
    C11(16)   R7        18
    C11(16)   R8        15
    C11(16)   R9        2
    C11(16)   R10       -1
    C11(16)   R11       11
    C11(16)   R12       12
    C11(16)   R13       9
    C11(16)   R14       7
    C11(16)   R15       11
    C11(16)   R16       5
    C12(12)   OBJ       -7
    C12(12)   R0        -8
    C12(12)   R1        8
    C12(12)   R2        -8
    C12(12)   R4        11
    C12(12)   R5        14
    C12(12)   R6        -1
    C12(12)   R7        2
    C12(12)   R8        14
    C12(12)   R9        5
    C12(12)   R10       -1
    C12(12)   R14       5
    C12(12)   R16       17
    C13(13)   OBJ       -5
    C13(13)   R0        -10
    C13(13)   R1        -6
    C13(13)   R2        -4
    C13(13)   R3        19
    C13(13)   R4        2
    C13(13)   R5        17
    C13(13)   R7        16
    C13(13)   R9        11
    C13(13)   R10       12
    C13(13)   R12       13
    C13(13)   R13       16
    C13(13)   R14       12
    C13(13)   R15       6
    C14(15)   OBJ       3
    C14(15)   R0        7
    C14(15)   R1        -6
    C14(15)   R2        -6
    C14(15)   R3        3
    C14(15)   R4        9
    C14(15)   R5        3
    C14(15)   R7        15
    C14(15)   R8        5
    C14(15)   R9        9
    C14(15)   R10       17
    C14(15)   R12       5
    C14(15)   R13       10
    C14(15)   R14       5
    C14(15)   R15       17
    C14(15)   R16       6
    C15(1)    R3        1
    C16(1)    R4        1
    C17(1)    R5        1
    C18(1)    R6        1
    C19(1)    R7        1
    C20(1)    R8        1
    C21(1)    R9        1
    C22(1)    R10       1
    C23(1)    R11       1
    C24(1)    R12       1
    C25(1)    R13       1
    C26(1)    R14       1
    C27(1)    R15       1
    C28(1)    R16       1
    C29(1)    R17       1
RHS
    RHS1      R0        2.2063736263736263e+02
    RHS1      R1        3.7686263736263737e+02
    RHS1      R2        -8.1835164835164861e+01
    RHS1      R3        92
    RHS1      R4        86
    RHS1      R5        94
    RHS1      R6        87
    RHS1      R7        72
    RHS1      R8        53
    RHS1      R9        75
    RHS1      R10       93
    RHS1      R11       79
    RHS1      R12       63
    RHS1      R13       79
    RHS1      R14       85
    RHS1      R15       52
    RHS1      R16       74
    RHS1      R17       2
BOUNDS
 UP BND1      I0(9)     1
 UP BND1      I1(7)     1
 UP BND1      I2(10)    1
 UP BND1      I3(9)     1
 UP BND1      I4(8)     1
 UP BND1      I5(10)    1
ENDATA
